k = 24;
b = 12;
AtomicConstraints =  [|
1, 7|
	1, 9|
	1, 10|
	2, 7|
	2, 8|
	2, 9|
	2, 10|
	3, 9|
	3, 11|
	3, 12|
	4, 9|
	4, 10|
	4, 11|
	4, 12|
	5, 11|
	6, 11|
	6, 12|
	20, 22|
	20, 21|
	16, 22|
	16, 20|
	16, 21|
	16, 19|
	16, 24|
	14, 22|
	14, 20|
	14, 16|
	14, 21|
	14, 19|
	14, 15|
	14, 24|
	14, 23|
	19, 22|
	19, 21|
	19, 24|
	15, 22|
	15, 20|
	15, 21|
	15, 19|
	15, 24|
	15, 23|
	13, 22|
	13, 20|
	13, 16|
	13, 21|
	13, 19|
	13, 15|
	13, 24|
	13, 23|
	13, 17|
	23, 21|
	23, 24|
	17, 21|
	17, 19|
	17, 24|
	17, 23|
	18, 21|
	18, 19|
	18, 15|
	18, 24|
	18, 23|
	18, 17|];
DisjunctiveConstraints =  [|1, 7, 1, 19|
	1, 8, 20, 1|
	2, 8, 2, 20|
	3, 9, 3, 21|
	4, 10, 4, 22|
	21, 22, 21, 24|
	19, 20, 19, 23|
	15, 16, 15, 17|
	13, 14, 13, 18|];
SoftAtomicConstraints =  [|
2, 1|
4, 3|
1, 4|
6, 5|
3, 6|
8, 7|
10, 9|
7, 10|
12, 11|
9, 12|
14, 13|
16, 15|
15, 17|
13, 18|
20, 19|
22, 21|
19, 23|
21, 24|];
DirectSuccessors =  [];
